19304 407539
235007 19917
311450 129914
30033 11810
214457 12830
239485 11810
268757 98292
265259 175746
130605 210
150852 9745
261308 175746
20143 11810
2810 107430
20115 11810
186648 7093
55917 555711
172003 572562
172003 572566
172003 572573
214469 12830
7093 109453
214983 11810
65743 17957
71196 11810
175746 507708
11810 215058
